NAME : census.-51133300.tour
COMMENT : Length = -51133300
COMMENT : Found by LKH [Keld Helsgaun] Tue May 25 08:54:35 2021
TYPE : TOUR
DIMENSION : 68
TOUR_SECTION
1
41
56
12
37
49
34
52
33
32
8
47
9
35
27
6
63
25
16
5
38
58
57
68
46
31
67
15
62
26
53
21
20
11
4
22
65
13
61
60
59
24
18
28
36
23
19
55
30
7
14
10
42
17
44
48
29
45
51
43
3
40
39
2
50
64
54
66
-1
EOF
